     Program PWSCF v.7.0 starts on  8Mar2023 at 20:28:17

     R & G space division:  proc/nbgrp/npool/nimage =       8

     Reading input from aiida.in

     Current dimensions of program PWSCF are:
     Max number of different atomic species (ntypx) = 10
     Max number of k-points (npk) =  40000
     Max angular momentum in pseudopotentials (lmaxx) =  4
     file Er.paw.z_22.atompaw.wentzcovitch.v1.2.upf: wavefunction(s)  6S 0P 5D 0D 4F 0F renormalized
     Message from routine setup:
     using ibrav=0 with symmetry is DISCOURAGED, use correct ibrav instead

     Using Slab Decomposition

     bravais-lattice index     =            0
     lattice parameter (alat)  =      11.5312  a.u.
     unit-cell volume          =    1084.1849 (a.u.)^3
     number of atoms/cell      =            2
     number of atomic types    =            1
     number of electrons       =        44.00
     number of Kohn-Sham states=           26
     kinetic-energy cutoff     =      40.0000  Ry
     charge density cutoff     =     320.0000  Ry
     scf convergence threshold =      1.0E-06
     mixing beta               =       0.7000
     number of iterations used =            8  plain     mixing
     Exchange-correlation= SLA PW PBX PBC
                           (   1   4   3   4   0   0   0)

     celldm(1)=  11.531154  celldm(2)=   0.000000  celldm(3)=   0.000000
     celldm(4)=   0.000000  celldm(5)=   0.000000  celldm(6)=   0.000000

     crystal axes: (cart. coord. in units of alat)
               a(1) = (   0.000000   0.707107   0.707107 )
               a(2) = (   0.707107   0.000000   0.707107 )
               a(3) = (   0.707107   0.707107   0.000000 )

     reciprocal axes: (cart. coord. in units 2 pi/alat)
               b(1) = ( -0.707107  0.707107  0.707107 )
               b(2) = (  0.707107 -0.707107  0.707107 )
               b(3) = (  0.707107  0.707107 -0.707107 )

     PseudoPot. # 1 for Er read from file:
     ./pseudo/Er.paw.z_22.atompaw.wentzcovitch.v1.2.upf
     MD5 check sum: 5ba6a5c626b1678e031aafe1da34e245
     Pseudo is Projector augmented-wave + core cor, Zval = 22.0
     Generated using ATOMPAW code
     Shape of augmentation charge: BESSEL
     Using radial grid of 1114 points,  8 beta functions with:
                l(1) =   0
                l(2) =   0
                l(3) =   1
                l(4) =   1
                l(5) =   2
                l(6) =   2
                l(7) =   3
                l(8) =   3
     Q(r) pseudized with 0 coefficients

     atomic species   valence    mass     pseudopotential
        Er            22.00   167.25900     Er( 1.00)

     48 Sym. Ops., with inversion, found (24 have fractional translation)

                                    s                        frac. trans.

      isym =  1     identity

 cryst.   s( 1) = (     1          0          0      )
                  (     0          1          0      )
                  (     0          0          1      )

 cart.    s( 1) = (  1.0000000  0.0000000  0.0000000 )
                  (  0.0000000  1.0000000  0.0000000 )
                  (  0.0000000  0.0000000  1.0000000 )

      isym =  2     180 deg rotation - cart. axis [0,0,1]

[...]

 cryst.   s( 4) = (    -1          0          0      )
                  (    -1          0          1      )
                  (    -1          1          0      )

 cart.    s( 4) = (  1.0000000  0.0000000  0.0000000 )
                  (  0.0000000 -1.0000000  0.0000000 )
                  (  0.0000000  0.0000000 -1.0000000 )

[...]

 cryst.   s( 5) = (    -1          0          1      )    f =( -0.2500000 )
                  (     0         -1          1      )       ( -0.2500000 )
                  (     0          0          1      )       ( -0.2500000 )

 cart.    s( 5) = (  0.0000000  1.0000000  0.0000000 )    f =( -0.3535534 )
                  (  1.0000000  0.0000000  0.0000000 )       ( -0.3535534 )
                  (  0.0000000  0.0000000 -1.0000000 )       ( -0.3535534 )

[...]

 cryst.   s( 9) = (    -1          1          0      )    f =( -0.2500000 )
                  (     0          1          0      )       ( -0.2500000 )
                  (     0          1         -1      )       ( -0.2500000 )

 cart.    s( 9) = (  0.0000000  0.0000000  1.0000000 )    f =( -0.3535534 )
                  (  0.0000000 -1.0000000  0.0000000 )       ( -0.3535534 )
                  (  1.0000000  0.0000000  0.0000000 )       ( -0.3535534 )

[...]

 cryst.   s(10) = (     0          0         -1      )    f =( -0.2500000 )
                  (     0         -1          0      )       ( -0.2500000 )
                  (    -1          0          0      )       ( -0.2500000 )

 cart.    s(10) = (  0.0000000  0.0000000 -1.0000000 )    f =( -0.3535534 )
                  (  0.0000000 -1.0000000  0.0000000 )       ( -0.3535534 )
                  ( -1.0000000  0.0000000  0.0000000 )       ( -0.3535534 )

[...]

 cryst.   s(17) = (     0          0          1      )
                  (     1          0          0      )
                  (     0          1          0      )

 cart.    s(17) = (  0.0000000  1.0000000  0.0000000 )
                  (  0.0000000  0.0000000  1.0000000 )
                  (  1.0000000  0.0000000  0.0000000 )

[...]

      isym = 24     120 deg rotation - cart. axis [-1,-1,1]

[...]

      isym = 25     inversion

[...]

      isym = 26     inv. 180 deg rotation - cart. axis [0,0,1]

[...]

 cryst.   s(40) = (     0         -1          1      )
                  (     1         -1          0      )
                  (     0         -1          0      )

 cart.    s(40) = ( -1.0000000  0.0000000  0.0000000 )
                  (  0.0000000  0.0000000  1.0000000 )
                  (  0.0000000 -1.0000000  0.0000000 )

[...]

      isym = 48     inv. 120 deg rotation - cart. axis [-1,-1,1]

 cryst.   s(48) = (     0          1          0      )    f =( -0.2500000 )
                  (    -1          1          0      )       ( -0.2500000 )
                  (     0          1         -1      )       ( -0.2500000 )

 cart.    s(48) = (  0.0000000  0.0000000  1.0000000 )    f =( -0.3535534 )
                  ( -1.0000000  0.0000000  0.0000000 )       ( -0.3535534 )
                  (  0.0000000  1.0000000  0.0000000 )       ( -0.3535534 )

   Cartesian axes

     site n.     atom                  positions (alat units)
         1           Er  tau(   1) = (   0.0000000   0.0000000   0.7071068  )
         2           Er  tau(   2) = (   0.3535534   1.0606602   0.3535534  )

   Crystallographic axes

     site n.     atom                  positions (cryst. coord.)
         1           Er  tau(   1) = (  0.5000000  0.5000000 -0.5000000  )
         2           Er  tau(   2) = (  0.7500000 -0.2500000  0.7500000  )

     number of k points=    35  Fermi-Dirac smearing, width (Ry)=  0.0045
                       cart. coord. in units 2pi/alat
        k(    1) = (   0.0000000   0.0000000   0.0000000), wk =   0.0027435
        k(    2) = (   0.0785674   0.0785674  -0.0785674), wk =   0.0219479
        k(    3) = (   0.1571348   0.1571348  -0.1571348), wk =   0.0219479
        k(    4) = (   0.2357023   0.2357023  -0.2357023), wk =   0.0219479
        k(    5) = (   0.3142697   0.3142697  -0.3142697), wk =   0.0219479
        k(    6) = (   0.1571348   0.0000000   0.0000000), wk =   0.0164609
        k(    7) = (   0.2357023   0.0785674  -0.0785674), wk =   0.0658436
        k(    8) = (   0.3142697   0.1571348  -0.1571348), wk =   0.0658436
        k(    9) = (   0.3928371   0.2357023  -0.2357023), wk =   0.0658436
        k(   10) = (  -0.2357023  -0.3928371   0.3928371), wk =   0.0658436
        k(   11) = (  -0.1571348  -0.3142697   0.3142697), wk =   0.0658436
        k(   12) = (  -0.0785674  -0.2357023   0.2357023), wk =   0.0658436
        k(   13) = (  -0.0000000  -0.1571348   0.1571348), wk =   0.0329218
        k(   14) = (   0.3142697   0.0000000   0.0000000), wk =   0.0164609
        k(   15) = (   0.3928371   0.0785674  -0.0785674), wk =   0.0658436
        k(   16) = (   0.4714045   0.1571348  -0.1571348), wk =   0.0658436
        k(   17) = (  -0.1571348  -0.4714045   0.4714045), wk =   0.0658436
        k(   18) = (  -0.0785674  -0.3928371   0.3928371), wk =   0.0658436
        k(   19) = (   0.0000000  -0.3142697   0.3142697), wk =   0.0329218
        k(   20) = (   0.4714045   0.0000000   0.0000000), wk =   0.0164609
        k(   21) = (   0.5499719   0.0785674  -0.0785674), wk =   0.0658436
        k(   22) = (  -0.0785674  -0.5499719   0.5499719), wk =   0.0658436
        k(   23) = (  -0.0000000  -0.4714045   0.4714045), wk =   0.0329218
        k(   24) = (   0.6285394   0.0000000   0.0000000), wk =   0.0164609
        k(   25) = (   0.0000000  -0.6285394   0.6285394), wk =   0.0329218
        k(   26) = (   0.3142697   0.1571348   0.0000000), wk =   0.0658436
        k(   27) = (   0.3928371   0.2357023  -0.0785674), wk =   0.1316872
        k(   28) = (  -0.2357023  -0.3928371   0.5499719), wk =   0.1316872
        k(   29) = (   0.4714045   0.1571348   0.0000000), wk =   0.0658436
        k(   30) = (  -0.1571348  -0.4714045   0.6285394), wk =   0.1316872
        k(   31) = (  -0.0785674  -0.3928371   0.5499719), wk =   0.1316872
        k(   32) = (   0.0000000  -0.3142697   0.4714045), wk =   0.0658436
        k(   33) = (  -0.0785674  -0.5499719   0.7071068), wk =   0.0658436
        k(   34) = (  -0.0000000  -0.4714045   0.6285394), wk =   0.0658436
        k(   35) = (  -0.0785674  -0.3928371   0.7071068), wk =   0.0658436

                       cryst. coord.
        k(    1) = (   0.0000000   0.0000000   0.0000000), wk =   0.0027435
        k(    2) = (   0.0000000   0.0000000   0.1111111), wk =   0.0219479
        k(    3) = (   0.0000000   0.0000000   0.2222222), wk =   0.0219479
        k(    4) = (   0.0000000   0.0000000   0.3333333), wk =   0.0219479
        k(    5) = (   0.0000000   0.0000000   0.4444444), wk =   0.0219479
        k(    6) = (   0.0000000   0.1111111   0.1111111), wk =   0.0164609
        k(    7) = (   0.0000000   0.1111111   0.2222222), wk =   0.0658436
        k(    8) = (   0.0000000   0.1111111   0.3333333), wk =   0.0658436
        k(    9) = (   0.0000000   0.1111111   0.4444444), wk =   0.0658436
        k(   10) = (   0.0000000   0.1111111  -0.4444444), wk =   0.0658436
        k(   11) = (   0.0000000   0.1111111  -0.3333333), wk =   0.0658436
        k(   12) = (   0.0000000   0.1111111  -0.2222222), wk =   0.0658436
        k(   13) = (   0.0000000   0.1111111  -0.1111111), wk =   0.0329218
        k(   14) = (   0.0000000   0.2222222   0.2222222), wk =   0.0164609
        k(   15) = (   0.0000000   0.2222222   0.3333333), wk =   0.0658436
        k(   16) = (   0.0000000   0.2222222   0.4444444), wk =   0.0658436
        k(   17) = (   0.0000000   0.2222222  -0.4444444), wk =   0.0658436
        k(   18) = (   0.0000000   0.2222222  -0.3333333), wk =   0.0658436
        k(   19) = (   0.0000000   0.2222222  -0.2222222), wk =   0.0329218
        k(   20) = (   0.0000000   0.3333333   0.3333333), wk =   0.0164609
        k(   21) = (   0.0000000   0.3333333   0.4444444), wk =   0.0658436
        k(   22) = (   0.0000000   0.3333333  -0.4444444), wk =   0.0658436
        k(   23) = (   0.0000000   0.3333333  -0.3333333), wk =   0.0329218
        k(   24) = (   0.0000000   0.4444444   0.4444444), wk =   0.0164609
        k(   25) = (   0.0000000   0.4444444  -0.4444444), wk =   0.0329218
        k(   26) = (   0.1111111   0.2222222   0.3333333), wk =   0.0658436
        k(   27) = (   0.1111111   0.2222222   0.4444444), wk =   0.1316872
        k(   28) = (   0.1111111   0.2222222  -0.4444444), wk =   0.1316872
        k(   29) = (   0.1111111   0.3333333   0.4444444), wk =   0.0658436
        k(   30) = (   0.1111111   0.3333333  -0.4444444), wk =   0.1316872
        k(   31) = (   0.1111111   0.3333333  -0.3333333), wk =   0.1316872
        k(   32) = (   0.1111111   0.3333333  -0.2222222), wk =   0.0658436
        k(   33) = (   0.1111111   0.4444444  -0.4444444), wk =   0.0658436
        k(   34) = (   0.1111111   0.4444444  -0.3333333), wk =   0.0658436
        k(   35) = (   0.2222222   0.4444444  -0.3333333), wk =   0.0658436

     Initial potential from superposition of free atoms

     starting charge      43.9916, renormalised to      44.0000
     Starting wfcs are   64 randomized atomic wfcs
     Checking if some PAW data can be deallocated...

     Self-consistent Calculation

     iteration #  1     ecut=    40.00 Ry     beta= 0.70
     Davidson diagonalization with overlap

     ethr =  1.00E-02,  avg # of iterations =  1.7

     total energy              =   -1761.43237520 Ry
     estimated scf accuracy    <       8.29053294 Ry

[...]

     c_bands:  2 eigenvalues not converged
     c_bands:  1 eigenvalues not converged
     c_bands:  1 eigenvalues not converged
     c_bands:  1 eigenvalues not converged
     c_bands:  1 eigenvalues not converged
     c_bands:  2 eigenvalues not converged
     c_bands:  1 eigenvalues not converged
     c_bands:  1 eigenvalues not converged
     ethr =  1.21E-06,  avg # of iterations = 13.5

[...]

     total energy              =   -1771.43799401 Ry
     estimated scf accuracy    <       0.00006251 Ry

     iteration # 21     ecut=    40.00 Ry     beta= 0.70
     Davidson diagonalization with overlap

     ethr =  8.08E-08,  avg # of iterations =  1.0

     End of self-consistent calculation

          k = 0.0000 0.0000 0.0000 (  4645 PWs)   bands (ev):

   -45.3379 -45.3233 -19.8312 -19.8312 -19.8312 -19.7232 -19.7232 -19.7232
     0.3532   3.5531   3.5714   3.5714   3.5714   3.5855   3.5855   3.5855
     3.6261   3.6261   3.6261   3.6450   3.6464   3.6464   3.6464   4.6073
     4.6073   4.6075

     occupation numbers
     1.0000   1.0000   1.0000   1.0000   1.0000   1.0000   1.0000   1.0000
     1.0000   0.9369   0.9167   0.9167   0.9167   0.8973   0.8973   0.8973
     0.8182   0.8182   0.8182   0.7680   0.7637   0.7637   0.7637   0.0000
     0.0000   0.0000

[...]

          k =-0.2357-0.3928 0.3928 (  4627 PWs)   bands (ev):

[...]

          k = 0.0000-0.3143 0.4714 (  4624 PWs)   bands (ev):

[...]

          k =-0.0786-0.3928 0.7071 (  4633 PWs)   bands (ev):

   -45.3316 -45.3296 -19.8519 -19.8497 -19.7872 -19.7685 -19.7049 -19.7028
     2.1861   2.7351   3.5521   3.5673   3.5697   3.5729   3.5813   3.5875
     3.5892   3.6031   3.6083   3.6084   3.6245   3.6272   3.6389   3.6427
     3.7401   3.8542

     occupation numbers
     1.0000   1.0000   1.0000   1.0000   1.0000   1.0000   1.0000   1.0000
     1.0000   1.0000   0.9379   0.9217   0.9188   0.9148   0.9035   0.8943
     0.8917   0.8676   0.8577   0.8575   0.8221   0.8155   0.7850   0.7744
     0.4115   0.0979

     the Fermi energy is     3.7182 ev

!    total energy              =   -1771.43799716 Ry

     total all-electron energy =     -1771.437997 Ry
     estimated scf accuracy    <       0.00000013 Ry
     smearing contrib. (-TS)   =      -0.05094490 Ry
     internal energy E=F+TS    =   -1771.38705226 Ry

     The total energy is F=E-TS. E is the sum of the following terms:
     one-electron contribution =    -787.82523623 Ry
     hartree contribution      =     376.68466161 Ry
     xc contribution           =     -65.81052086 Ry
     ewald contribution        =    -319.75568334 Ry
     one-center paw contrib.   =    -974.68027344 Ry
      -> PAW hartree energy AE =     346.10291108 Ry
      -> PAW hartree energy PS =    -310.86456245 Ry
      -> PAW xc energy AE      =    -554.68431452 Ry
      -> PAW xc energy PS      =      32.10582917 Ry
      -> total E_H with PAW    =     411.92301023 Ry
      -> total E_XC with PAW   =    -588.38900621 Ry

     convergence has been achieved in  21 iterations

     Writing all to output data dir ./out/aiida.save/

     General routines

     Parallel routines

     PAW routines

   This run was terminated on:  20:29: 7   8Mar2023

   JOB DONE.